p cnf 28 51
c node "figure7a-0-0" must have at least one color
1 2 3 4 0
c node "figure7a-0-1" must have at least one color
5 6 7 8 0
c node "figure7a-0-2" must have at least one color
9 10 11 12 0
c node "figure7a-0-3" must have at least one color
13 14 15 16 0
c node "figure7a-1-1" must have at least one color
17 18 19 20 0
c node "figure7a-1-2" must have at least one color
21 22 23 24 0
c node "figure7a-1-3" must have at least one color
25 26 27 28 0
c nodes "figure7a-0-0" and "figure7a-0-1" may not have the same color
-1 -5 0
-2 -6 0
-3 -7 0
-4 -8 0
c nodes "figure7a-0-0" and "figure7a-0-2" may not have the same color
-1 -9 0
-2 -10 0
-3 -11 0
-4 -12 0
c nodes "figure7a-0-0" and "figure7a-1-1" may not have the same color
-1 -17 0
-2 -18 0
-3 -19 0
-4 -20 0
c nodes "figure7a-0-0" and "figure7a-1-2" may not have the same color
-1 -21 0
-2 -22 0
-3 -23 0
-4 -24 0
c nodes "figure7a-0-1" and "figure7a-0-2" may not have the same color
-5 -9 0
-6 -10 0
-7 -11 0
-8 -12 0
c nodes "figure7a-0-1" and "figure7a-0-3" may not have the same color
-5 -13 0
-6 -14 0
-7 -15 0
-8 -16 0
c nodes "figure7a-0-2" and "figure7a-0-3" may not have the same color
-9 -13 0
-10 -14 0
-11 -15 0
-12 -16 0
c nodes "figure7a-0-3" and "figure7a-1-3" may not have the same color
-13 -25 0
-14 -26 0
-15 -27 0
-16 -28 0
c nodes "figure7a-1-1" and "figure7a-1-2" may not have the same color
-17 -21 0
-18 -22 0
-19 -23 0
-20 -24 0
c nodes "figure7a-1-1" and "figure7a-1-3" may not have the same color
-17 -25 0
-18 -26 0
-19 -27 0
-20 -28 0
c nodes "figure7a-1-2" and "figure7a-1-3" may not have the same color
-21 -25 0
-22 -26 0
-23 -27 0
-24 -28 0